Solving original (integer) problem with strategy gdp.binary_multiplication...
--- Job model.gms Start 02/19/26 01:32:33 52.2.0 d8e408be LEX-LEG x86 64bit/Linux
--- Applying:
    /package/gams/52.2/gmsprmun.txt
--- GAMS Parameters defined
    Input /local/scratch/a/sgusev/repos/k_means/data/gams_gurobi_gdp.binary_multiplication/no_mode/2026-02-19_01-32-32/original/model.gms
    Output /local/scratch/a/sgusev/repos/k_means/data/gams_gurobi_gdp.binary_multiplication/no_mode/2026-02-19_01-32-32/original/output.lst
    ScrDir /local/scratch/a/sgusev/repos/k_means/data/gams_gurobi_gdp.binary_multiplication/no_mode/2026-02-19_01-32-32/original/225a/
    SysDir /package/gams/52.2/
    CurDir /local/scratch/a/sgusev/repos/k_means/data/gams_gurobi_gdp.binary_multiplication/no_mode/2026-02-19_01-32-32/original/
    LogOption 3
    AppendLog 1
Licensee: David Bernal / SECQUOIA Research Group         G251008+0003Ac-GEN
          Purdue University, Davidson School of Chemical EngineeringDCE4838
          225a/gamslice.dat
          5a82958a-fbca-4a23
          node:66820903 mem:995 cores:48 ipport:56981 v:2                  
          Evaluation license: Not for commercial or production use
          The time-limited license stops working on : Jun 30, 2027
System information: 48 physical cores and 995 Gb physical memory detected
GAMS 52.2.0   Copyright (C) 1987-2025 GAMS Development. All rights reserved
--- Starting compilation
--- model.gms(257) 2 Mb
--- $echo File /local/scratch/a/sgusev/repos/k_means/data/gams_gurobi_gdp.binary_multiplication/no_mode/2026-02-19_01-32-32/original/gurobi.opt
--- model.gms(456) 2 Mb
--- Starting execution: elapsed 0:00:00.007
--- model.gms(266) 3 Mb
--- Generating MINLP model GAMS_MODEL
--- model.gms(270) 5 Mb
---   63 rows  70 columns  290 non-zeroes
---   675 nl-code  225 nl-non-zeroes
---   45 discrete-columns
--- Range statistics (absolute non-zero finite values)
--- RHS       [min, max] : [ 1.000E+00, 1.000E+00] - Zero values observed as well
--- Bound     [min, max] : [ 1.000E+00, 9.000E+01] - Zero values observed as well
--- Matrix    [min, max] : [ 2.280E-01, 2.020E+00] - Zero values observed as well
--- model.gms(270) 3 Mb
--- Executing GUROBI (Solvelink=5): elapsed 0:00:00.009
Reading parameter(s) from "/local/scratch/a/sgusev/repos/k_means/data/gams_gurobi_gdp.binary_multiplication/no_mode/2026-02-19_01-32-32/original/gurobi.opt"
>>  NonConvex 2
>>  Threads 1
>>  MIPGap 1e-06
>>  MIPGapAbs 1e-10
>>  FeasibilityTol 1e-06
>>  OptimalityTol 1e-06
>>  IntFeasTol 1e-05
Finished reading from "/local/scratch/a/sgusev/repos/k_means/data/gams_gurobi_gdp.binary_multiplication/no_mode/2026-02-19_01-32-32/original/gurobi.opt"

... GRB_LICENSE_FILE = /local/scratch/a/sgusev/gurobi.lic

    Gurobi           52.2.0 d8e408be Dec 8, 2025           LEG x86 64bit/Linux    

... GAMS/Gurobi Link license.
... GMO Q Extraction (ThreePass): 0.00s

    Gurobi Optimizer version 13.0.0 build v13.0.0rc1 (linux64 - "Oracle Linux Server 9.7")
    
    CPU model: AMD EPYC 7643 48-Core Processor, instruction set [SSE2|AVX|AVX2]
    Thread count: 48 physical cores, 96 logical processors, using up to 1 threads
    
    Non-default parameters:
    TimeLimit  300
    MIPGap  1e-06
    LogToConsole  0
    NonConvex  2
    Threads  1
    
    Optimize a model with 62 rows, 114 columns and 94 nonzeros (Min)
    Model fingerprint: 0xc3839230
    Model has 15 linear objective coefficients
    Model has 45 general nonlinear constraints (180 nonlinear terms)
    Variable types: 69 continuous, 45 integer (0 binary)
    Coefficient statistics:
      Matrix range     [1e+00, 1e+00]
      Objective range  [1e+00, 1e+00]
      Bounds range     [1e+00, 9e+01]
      RHS range        [1e+00, 1e+00]
      NLCon coe range  [8e-03, 1e+00]
    Presolve model has 45 nlconstr
    Added 315 variables to disaggregate expressions
    Presolve removed 45 rows and 0 columns
    Presolve time: 0.00s
    Presolved: 782 rows, 475 columns, 1804 nonzeros
    Presolved model has 135 bilinear constraint(s)
    
    Solving non-convex MIQCP to global optimality
    
    Variable types: 430 continuous, 45 integer (45 binary)
    Found heuristic solution: objective 11.1586839
    
    Root relaxation: objective 0.000000e+00, 231 iterations, 0.00 seconds (0.00 work units)
    
        Nodes    |    Current Node    |     Objective Bounds      |     Work
     Expl Unexpl |  Obj  Depth IntInf | Incumbent    BestBd   Gap | It/Node Time
    
         0     0    0.00000    0   64   11.15868    0.00000   100%     -    0s
         0     0    0.00000    0   78   11.15868    0.00000   100%     -    0s
         0     0    0.00000    0   78   11.15868    0.00000   100%     -    0s
         0     0    0.00000    0  133   11.15868    0.00000   100%     -    0s
         0     0    0.00000    0  135   11.15868    0.00000   100%     -    0s
    H    0     0                       8.4554945    0.00000   100%     -    0s
         0     0    0.00000    0  135    8.45549    0.00000   100%     -    0s
         0     0    0.00000    0  134    8.45549    0.00000   100%     -    0s
         0     0    0.00000    0  147    8.45549    0.00000   100%     -    0s
    H    0     0                       6.4282351    0.00000   100%     -    0s
         0     0    0.00000    0  147    6.42824    0.00000   100%     -    0s
         0     0    0.00000    0  162    6.42824    0.00000   100%     -    0s
         0     0    0.00000    0  149    6.42824    0.00000   100%     -    0s
         0     0    0.00000    0  155    6.42824    0.00000   100%     -    0s
         0     0    0.00000    0  153    6.42824    0.00000   100%     -    0s
         0     0    0.00000    0  151    6.42824    0.00000   100%     -    0s
         0     0    0.00000    0  151    6.42824    0.00000   100%     -    0s
         0     0    0.00000    0  145    6.42824    0.00000   100%     -    0s
         0     2    0.00000    0  145    6.42824    0.00000   100%     -    0s
    H    2     2                       6.0818704    0.00000   100%   7.0    0s
    H    4     4                       5.7608475    0.00000   100%   6.5    0s
    H   34    33                       5.1801899    0.00000   100%   8.5    0s
    H   34    33                       5.1801899    0.00000   100%   8.5    0s
    H 1744   736                       5.0473303    0.00000   100%  22.0    3s
    H 1769   712                       5.0473303    0.00000   100%  21.9    3s
      3842  1472    4.79935   48   96    5.04733    0.33390  93.4%  22.4    5s
      9583  3149 infeasible   42         5.04733    1.42045  71.9%  21.5   10s
     14920  4294     cutoff   33         5.04733    1.94464  61.5%  21.1   15s
     20458  5159    4.86215   46  107    5.04733    2.45112  51.4%  20.8   20s
     25894  5876    3.76800   37  132    5.04733    2.77353  45.0%  20.6   25s
     30793  6519    3.37977   25  138    5.04733    3.00656  40.4%  20.3   30s
    H35909  7116                       5.0420429    3.23205  35.9%  19.8   34s
    H35918  7119                       5.0420429    3.23205  35.9%  19.8   34s
     36237  7143    4.34950   29  105    5.04204    3.24080  35.7%  19.8   35s
     41141  7587 infeasible   43         5.04204    3.37618  33.0%  19.4   40s
     46564  7965    3.95359   32  128    5.04204    3.52146  30.2%  18.9   45s
     52089  8175     cutoff   42         5.04204    3.65301  27.5%  18.5   50s
     57412  8294    4.80827   41  122    5.04204    3.77499  25.1%  18.2   55s
     62721  8122     cutoff   38         5.04204    3.88540  22.9%  17.9   60s
     68036  7863 infeasible   29         5.04204    4.00127  20.6%  17.6   65s
     73384  7319     cutoff   26         5.04204    4.11616  18.4%  17.4   70s
     78510  6754    4.24303   29  149    5.04204    4.24303  15.8%  17.1   75s
     84024  6128     cutoff   59         5.04204    4.36575  13.4%  16.8   80s
     89774  5657    4.93971   48  137    5.04204    4.46887  11.4%  16.5   85s
     96252  5281     cutoff   69         5.04204    4.55936  9.57%  16.1   90s
     102877  4634     cutoff   49         5.04204    4.63857  8.00%  15.7   95s
     109796  3917     cutoff   46         5.04204    4.72090  6.37%  15.2  100s
     116525  3095    4.82839   54   86    5.04204    4.80662  4.67%  14.9  105s
     123608  2526     cutoff   66         5.04204    4.90181  2.78%  14.5  110s
     130180  2108    5.03195   67   75    5.04204    4.96573  1.51%  14.2  115s
     137612  2294    5.03239   69   90    5.04204    5.00240  0.79%  13.8  120s
     144810  3038    5.03363   69   60    5.04204    5.01791  0.48%  13.4  125s
     152750  3870    5.03525   69   90    5.04204    5.02739  0.29%  13.0  130s
     160899  5297    5.04166   89   60    5.04204    5.03001  0.24%  12.6  135s
     169337  6565     cutoff   91         5.04204    5.03123  0.21%  12.3  140s
     177971  7991    5.03623   87   45    5.04204    5.03190  0.20%  11.9  145s
     186236  9184    5.04200   90   45    5.04204    5.03249  0.19%  11.7  150s
     194721 10267     cutoff   91         5.04204    5.03299  0.18%  11.4  155s
     202846 11628    5.03725   87   60    5.04204    5.03339  0.17%  11.2  160s
     211395 12875    5.03953   93   45    5.04204    5.03376  0.16%  10.9  165s
     219180 14006     cutoff   92         5.04204    5.03403  0.16%  10.7  170s
     227903 14875    5.04145   87   30    5.04204    5.03432  0.15%  10.5  175s
     236266 16062    5.03787   87   60    5.04204    5.03454  0.15%  10.4  180s
     244818 17298    5.04189   88   45    5.04204    5.03478  0.14%  10.2  185s
     253011 18273    5.04047   87   45    5.04204    5.03499  0.14%  10.0  190s
     261569 19555    5.03565   88   55    5.04204    5.03513  0.14%   9.9  195s
     269629 20659    5.03882   83   60    5.04204    5.03522  0.14%   9.8  200s
     277597 21589    5.03912   99   45    5.04204    5.03531  0.13%   9.7  205s
     285290 22192    5.04105   95   30    5.04204    5.03538  0.13%   9.6  210s
     293482 23040     cutoff   83         5.04204    5.03543  0.13%   9.5  215s
     301699 23855     cutoff   92         5.04204    5.03549  0.13%   9.5  220s
     309079 24727     cutoff   84         5.04204    5.03557  0.13%   9.4  225s
     317331 25659     cutoff  100         5.04204    5.03565  0.13%   9.3  230s
     325157 26443    5.04025   93   30    5.04204    5.03570  0.13%   9.3  235s
     333096 27074    5.03832   85   60    5.04204    5.03577  0.12%   9.2  240s
     340943 27623     cutoff   95         5.04204    5.03583  0.12%   9.1  245s
     349092 27910    5.03648   91   45    5.04204    5.03587  0.12%   9.1  250s
     357229 28307    5.03610   96   45    5.04204    5.03591  0.12%   9.0  255s
     366021 28705     cutoff  102         5.04204    5.03597  0.12%   8.9  260s
     374432 29098    5.04158   98   30    5.04204    5.03604  0.12%   8.8  265s
     383225 29725    5.04133   96   30    5.04204    5.03611  0.12%   8.8  270s
     391708 30250    5.04158   98   30    5.04204    5.03618  0.12%   8.7  275s
     399941 30833    5.03793   96   55    5.04204    5.03627  0.11%   8.6  280s
     408384 31190    5.04124   96   45    5.04204    5.03633  0.11%   8.6  285s
     417044 31830    5.03943   97   75    5.04204    5.03641  0.11%   8.5  290s
     425490 32500    5.04082   95   45    5.04204    5.03648  0.11%   8.4  295s
    
    Cutting planes:
      Gomory: 5
      Implied bound: 2
      MIR: 8
      Flow cover: 41
      RLT: 4
    
    Explored 434250 nodes (3632670 simplex iterations) in 300.00 seconds (209.77 work units)
    Thread count was 1 (of 96 available processors)
    
    Solution count 8: 5.04204 5.04733 5.18019 ... 11.1587
    
    Time limit reached
    Best objective 5.042042861478e+00, best bound 5.036543220661e+00, gap 0.1091%
    
    User-callback calls 434269, time in user-callback 0.02 sec

--- Reading solution for model GAMS_MODEL
***
*** Solver did not provide marginals for model GAMS_MODEL
***
--- Executing after solve: elapsed 0:05:00.064
--- model.gms(273) 3 Mb
--- model.gms(456) 5 Mb
--- Putfile results /local/scratch/a/sgusev/repos/k_means/data/gams_gurobi_gdp.binary_multiplication/no_mode/2026-02-19_01-32-32/original/results.dat
--- Putfile statresults /local/scratch/a/sgusev/repos/k_means/data/gams_gurobi_gdp.binary_multiplication/no_mode/2026-02-19_01-32-32/original/resultsstat.dat
*** Status: Normal completion
--- Job model.gms Stop 02/19/26 01:37:33 elapsed 0:05:00.065
Original problem solved. Time taken: 300.56973004341125 seconds
Original objective value: 5.0420428614778965
